% seed = 8742186

mint = 48;
% maxt = 123;

nActs = 22;
dur = [0,7,1,9,6,4,10,5,3,8,2,10,5,3,6,10,7,3,9,7,8,0];

nSkills = 4;
sreq = [| 0,0,0,0,
	| 3,0,1,1,
	| 3,0,1,3,
	| 3,3,0,2,
	| 2,3,0,3,
	| 1,2,3,2,
	| 2,0,0,3,
	| 3,0,2,1,
	| 3,0,1,3,
	| 2,0,0,1,
	| 2,1,0,1,
	| 0,0,3,3,
	| 1,1,3,2,
	| 1,0,2,0,
	| 3,2,1,1,
	| 0,3,0,3,
	| 1,0,1,3,
	| 1,2,2,2,
	| 3,0,0,3,
	| 3,1,1,3,
	| 0,0,2,2,
	| 0,0,0,0, |];

nResources = 20;
mastery = [| true,false,true,false,
	| false,false,true,false,
	| true,false,true,false,
	| false,true,false,false,
	| false,true,false,true,
	| false,true,false,false,
	| false,true,true,false,
	| false,false,true,false,
	| true,true,false,true,
	| false,true,false,false,
	| true,true,false,true,
	| true,true,true,false,
	| false,false,true,false,
	| false,true,true,false,
	| true,false,false,false,
	| false,false,false,true,
	| true,false,true,true,
	| false,false,false,true,
	| false,true,false,false,
	| true,false,true,false, |];

nPrecs = 43;
pred = [1,1,1,2,2,2,3,3,3,4,4,4,5,5,5,6,6,7,7,7,8,8,8,9,9,9,10,11,11,12,12,12,13,14,15,16,16,17,17,18,19,20,21];
succ = [2,3,4,9,11,12,11,5,16,5,6,7,9,20,21,12,8,17,14,8,10,11,15,10,13,14,18,18,19,17,14,16,19,19,16,20,21,18,20,21,22,22,22];

nUnrels = 82;
unpred = [2,2,2,2,2,2,2,3,3,3,3,3,3,3,5,5,5,5,5,5,5,5,6,6,6,7,7,7,8,8,8,8,8,9,9,9,9,9,9,10,10,10,10,10,10,10,10,10,11,11,11,11,11,11,11,12,12,13,13,13,13,13,13,13,14,14,14,14,14,14,15,15,15,16,16,16,17,18,18,19,19,20];
unsucc = [3,4,5,6,7,8,15,4,6,7,8,12,15,17,6,7,8,11,12,15,16,17,7,9,13,9,12,13,9,12,13,14,17,11,12,15,16,17,20,11,12,13,14,15,16,17,19,20,12,13,14,15,16,17,20,13,15,14,15,16,17,18,20,21,15,16,17,18,20,21,17,18,19,17,18,19,19,19,20,20,21,21];

USEFUL_RES = [{},
	{1,2,3,5,7,8,9,11,12,13,14,15,16,17,18,20},
	{1,2,3,5,7,8,9,11,12,13,14,15,16,17,18,20},
	{1,3,4,5,6,7,9,10,11,12,14,15,16,17,18,19,20},
	{1,3,4,5,6,7,9,10,11,12,14,15,16,17,18,19,20},
	{1,2,3,4,5,6,7,8,9,10,11,12,13,14,15,16,17,18,19,20},
	{1,3,5,9,11,12,15,16,17,18,20},
	{1,2,3,5,7,8,9,11,12,13,14,15,16,17,18,20},
	{1,2,3,5,7,8,9,11,12,13,14,15,16,17,18,20},
	{1,3,5,9,11,12,15,16,17,18,20},
	{1,3,4,5,6,7,9,10,11,12,14,15,16,17,18,19,20},
	{1,2,3,5,7,8,9,11,12,13,14,16,17,18,20},
	{1,2,3,4,5,6,7,8,9,10,11,12,13,14,15,16,17,18,19,20},
	{1,2,3,7,8,9,11,12,13,14,15,17,20},
	{1,2,3,4,5,6,7,8,9,10,11,12,13,14,15,16,17,18,19,20},
	{4,5,6,7,9,10,11,12,14,16,17,18,19},
	{1,2,3,5,7,8,9,11,12,13,14,15,16,17,18,20},
	{1,2,3,4,5,6,7,8,9,10,11,12,13,14,15,16,17,18,19,20},
	{1,3,5,9,11,12,15,16,17,18,20},
	{1,2,3,4,5,6,7,8,9,10,11,12,13,14,15,16,17,18,19,20},
	{1,2,3,5,7,8,9,11,12,13,14,16,17,18,20},
	{}];

POTENTIAL_ACT = [{2,3,4,5,6,7,8,9,10,11,12,13,14,15,17,18,19,20,21},
	{2,3,6,8,9,12,13,14,15,17,18,20,21},
	{2,3,4,5,6,7,8,9,10,11,12,13,14,15,17,18,19,20,21},
	{4,5,6,11,13,15,16,18,20},
	{2,3,4,5,6,7,8,9,10,11,12,13,15,16,17,18,19,20,21},
	{4,5,6,11,13,15,16,18,20},
	{2,3,4,5,6,8,9,11,12,13,14,15,16,17,18,20,21},
	{2,3,6,8,9,12,13,14,15,17,18,20,21},
	{2,3,4,5,6,7,8,9,10,11,12,13,14,15,16,17,18,19,20,21},
	{4,5,6,11,13,15,16,18,20},
	{2,3,4,5,6,7,8,9,10,11,12,13,14,15,16,17,18,19,20,21},
	{2,3,4,5,6,7,8,9,10,11,12,13,14,15,16,17,18,19,20,21},
	{2,3,6,8,9,12,13,14,15,17,18,20,21},
	{2,3,4,5,6,8,9,11,12,13,14,15,16,17,18,20,21},
	{2,3,4,5,6,7,8,9,10,11,13,14,15,17,18,19,20},
	{2,3,4,5,6,7,8,9,10,11,12,13,15,16,17,18,19,20,21},
	{2,3,4,5,6,7,8,9,10,11,12,13,14,15,16,17,18,19,20,21},
	{2,3,4,5,6,7,8,9,10,11,12,13,15,16,17,18,19,20,21},
	{4,5,6,11,13,15,16,18,20},
	{2,3,4,5,6,7,8,9,10,11,12,13,14,15,17,18,19,20,21}];
